c File: data_files/evolved_graphs/g0459.col
c
c Auto generated graph
c
p edge 100 2994
e 1 2
e 1 4
e 1 6
e 1 7
e 1 13
e 1 16
e 1 21
e 1 23
e 1 25
e 1 27
e 1 28
e 1 29
e 1 31
e 1 32
e 1 33
e 1 34
e 1 37
e 1 38
e 1 40
e 1 42
e 1 43
e 1 44
e 1 45
e 1 47
e 1 48
e 1 49
e 1 50
e 1 54
e 1 56
e 1 57
e 1 58
e 1 60
e 1 62
e 1 64
e 1 66
e 1 67
e 1 68
e 1 69
e 1 70
e 1 71
e 1 72
e 1 74
e 1 75
e 1 76
e 1 77
e 1 78
e 1 80
e 1 81
e 1 83
e 1 84
e 1 85
e 1 86
e 1 87
e 1 88
e 1 89
e 1 90
e 1 94
e 1 96
e 1 97
e 1 98
e 1 99
e 1 100
e 2 5
e 2 8
e 2 10
e 2 17
e 2 18
e 2 22
e 2 23
e 2 25
e 2 26
e 2 27
e 2 28
e 2 29
e 2 30
e 2 31
e 2 34
e 2 35
e 2 36
e 2 37
e 2 38
e 2 39
e 2 40
e 2 41
e 2 42
e 2 44
e 2 46
e 2 47
e 2 48
e 2 49
e 2 51
e 2 53
e 2 54
e 2 55
e 2 56
e 2 58
e 2 59
e 2 60
e 2 61
e 2 62
e 2 63
e 2 64
e 2 65
e 2 66
e 2 68
e 2 72
e 2 73
e 2 74
e 2 75
e 2 77
e 2 82
e 2 83
e 2 84
e 2 86
e 2 87
e 2 88
e 2 90
e 2 91
e 2 93
e 2 94
e 2 95
e 2 97
e 2 98
e 2 100
e 3 4
e 3 6
e 3 7
e 3 8
e 3 10
e 3 12
e 3 14
e 3 18
e 3 19
e 3 20
e 3 25
e 3 26
e 3 27
e 3 28
e 3 29
e 3 30
e 3 31
e 3 32
e 3 33
e 3 34
e 3 35
e 3 37
e 3 38
e 3 40
e 3 41
e 3 43
e 3 47
e 3 48
e 3 49
e 3 51
e 3 52
e 3 53
e 3 54
e 3 56
e 3 57
e 3 58
e 3 60
e 3 61
e 3 62
e 3 64
e 3 65
e 3 66
e 3 67
e 3 68
e 3 69
e 3 70
e 3 71
e 3 72
e 3 73
e 3 74
e 3 75
e 3 76
e 3 77
e 3 78
e 3 79
e 3 80
e 3 82
e 3 85
e 3 86
e 3 87
e 3 88
e 3 90
e 3 91
e 3 92
e 3 93
e 3 94
e 3 95
e 3 97
e 3 99
e 4 5
e 4 6
e 4 7
e 4 8
e 4 9
e 4 12
e 4 14
e 4 16
e 4 17
e 4 21
e 4 22
e 4 25
e 4 26
e 4 27
e 4 28
e 4 29
e 4 30
e 4 31
e 4 33
e 4 36
e 4 37
e 4 38
e 4 40
e 4 41
e 4 42
e 4 44
e 4 45
e 4 46
e 4 48
e 4 49
e 4 51
e 4 53
e 4 54
e 4 55
e 4 56
e 4 57
e 4 58
e 4 59
e 4 60
e 4 61
e 4 62
e 4 64
e 4 65
e 4 66
e 4 67
e 4 68
e 4 69
e 4 70
e 4 71
e 4 72
e 4 73
e 4 74
e 4 76
e 4 77
e 4 78
e 4 79
e 4 80
e 4 81
e 4 82
e 4 83
e 4 84
e 4 86
e 4 88
e 4 89
e 4 90
e 4 91
e 4 92
e 4 93
e 4 95
e 4 96
e 4 97
e 4 98
e 4 99
e 4 100
e 5 11
e 5 12
e 5 14
e 5 17
e 5 20
e 5 21
e 5 22
e 5 25
e 5 26
e 5 27
e 5 28
e 5 29
e 5 31
e 5 32
e 5 33
e 5 34
e 5 36
e 5 37
e 5 39
e 5 40
e 5 42
e 5 43
e 5 44
e 5 45
e 5 47
e 5 49
e 5 50
e 5 51
e 5 53
e 5 54
e 5 55
e 5 56
e 5 57
e 5 58
e 5 59
e 5 60
e 5 61
e 5 63
e 5 65
e 5 67
e 5 68
e 5 69
e 5 70
e 5 72
e 5 74
e 5 75
e 5 76
e 5 77
e 5 78
e 5 80
e 5 82
e 5 83
e 5 85
e 5 86
e 5 87
e 5 88
e 5 89
e 5 90
e 5 91
e 5 92
e 5 93
e 5 95
e 5 96
e 5 97
e 5 98
e 5 99
e 5 100
e 6 9
e 6 10
e 6 18
e 6 19
e 6 20
e 6 21
e 6 23
e 6 24
e 6 25
e 6 26
e 6 27
e 6 28
e 6 29
e 6 31
e 6 32
e 6 34
e 6 35
e 6 36
e 6 38
e 6 40
e 6 41
e 6 42
e 6 43
e 6 44
e 6 45
e 6 47
e 6 48
e 6 49
e 6 50
e 6 51
e 6 52
e 6 53
e 6 56
e 6 57
e 6 59
e 6 60
e 6 61
e 6 63
e 6 64
e 6 65
e 6 66
e 6 68
e 6 69
e 6 70
e 6 71
e 6 73
e 6 74
e 6 75
e 6 76
e 6 77
e 6 79
e 6 80
e 6 83
e 6 85
e 6 86
e 6 87
e 6 88
e 6 90
e 6 91
e 6 92
e 6 93
e 6 94
e 6 96
e 6 97
e 6 98
e 6 99
e 6 100
e 7 13
e 7 14
e 7 19
e 7 20
e 7 25
e 7 26
e 7 27
e 7 28
e 7 30
e 7 31
e 7 32
e 7 34
e 7 35
e 7 37
e 7 38
e 7 39
e 7 40
e 7 41
e 7 42
e 7 44
e 7 45
e 7 46
e 7 47
e 7 49
e 7 50
e 7 51
e 7 53
e 7 55
e 7 56
e 7 58
e 7 59
e 7 60
e 7 61
e 7 62
e 7 65
e 7 67
e 7 68
e 7 70
e 7 71
e 7 72
e 7 73
e 7 74
e 7 75
e 7 76
e 7 77
e 7 78
e 7 79
e 7 80
e 7 81
e 7 83
e 7 84
e 7 86
e 7 87
e 7 88
e 7 89
e 7 93
e 7 97
e 7 98
e 7 99
e 7 100
e 8 10
e 8 11
e 8 12
e 8 13
e 8 15
e 8 18
e 8 19
e 8 20
e 8 22
e 8 24
e 8 25
e 8 26
e 8 27
e 8 28
e 8 32
e 8 33
e 8 35
e 8 37
e 8 40
e 8 41
e 8 42
e 8 43
e 8 44
e 8 45
e 8 46
e 8 47
e 8 48
e 8 49
e 8 50
e 8 51
e 8 52
e 8 53
e 8 54
e 8 55
e 8 56
e 8 57
e 8 58
e 8 59
e 8 61
e 8 62
e 8 64
e 8 65
e 8 67
e 8 68
e 8 69
e 8 72
e 8 73
e 8 74
e 8 76
e 8 77
e 8 79
e 8 80
e 8 81
e 8 83
e 8 84
e 8 87
e 8 88
e 8 89
e 8 90
e 8 91
e 8 92
e 8 95
e 8 97
e 8 99
e 8 100
e 9 10
e 9 11
e 9 12
e 9 14
e 9 18
e 9 20
e 9 21
e 9 25
e 9 26
e 9 27
e 9 28
e 9 29
e 9 30
e 9 31
e 9 32
e 9 33
e 9 34
e 9 35
e 9 36
e 9 37
e 9 39
e 9 40
e 9 41
e 9 42
e 9 43
e 9 44
e 9 45
e 9 46
e 9 48
e 9 50
e 9 51
e 9 52
e 9 53
e 9 54
e 9 55
e 9 56
e 9 58
e 9 60
e 9 63
e 9 64
e 9 66
e 9 67
e 9 68
e 9 69
e 9 70
e 9 72
e 9 73
e 9 75
e 9 76
e 9 77
e 9 78
e 9 80
e 9 81
e 9 82
e 9 83
e 9 84
e 9 85
e 9 86
e 9 89
e 9 90
e 9 91
e 9 92
e 9 93
e 9 94
e 9 95
e 9 96
e 9 97
e 9 99
e 9 100
e 10 11
e 10 15
e 10 17
e 10 18
e 10 19
e 10 25
e 10 26
e 10 27
e 10 28
e 10 30
e 10 32
e 10 33
e 10 35
e 10 37
e 10 39
e 10 40
e 10 41
e 10 43
e 10 44
e 10 45
e 10 46
e 10 47
e 10 48
e 10 49
e 10 50
e 10 52
e 10 54
e 10 56
e 10 57
e 10 58
e 10 59
e 10 60
e 10 61
e 10 63
e 10 64
e 10 66
e 10 67
e 10 68
e 10 70
e 10 71
e 10 72
e 10 75
e 10 76
e 10 77
e 10 79
e 10 82
e 10 84
e 10 85
e 10 86
e 10 87
e 10 89
e 10 91
e 10 92
e 10 94
e 10 95
e 10 97
e 10 99
e 10 100
e 11 14
e 11 17
e 11 18
e 11 23
e 11 25
e 11 26
e 11 27
e 11 28
e 11 29
e 11 30
e 11 31
e 11 32
e 11 33
e 11 34
e 11 35
e 11 37
e 11 38
e 11 39
e 11 40
e 11 41
e 11 42
e 11 43
e 11 44
e 11 45
e 11 48
e 11 49
e 11 50
e 11 51
e 11 52
e 11 53
e 11 54
e 11 55
e 11 56
e 11 57
e 11 58
e 11 62
e 11 64
e 11 65
e 11 68
e 11 69
e 11 70
e 11 71
e 11 73
e 11 74
e 11 76
e 11 77
e 11 79
e 11 80
e 11 81
e 11 82
e 11 84
e 11 85
e 11 86
e 11 87
e 11 88
e 11 89
e 11 90
e 11 91
e 11 93
e 11 94
e 11 95
e 11 96
e 11 98
e 11 99
e 11 100
e 12 14
e 12 15
e 12 16
e 12 19
e 12 22
e 12 23
e 12 25
e 12 26
e 12 27
e 12 28
e 12 32
e 12 33
e 12 35
e 12 36
e 12 37
e 12 38
e 12 40
e 12 41
e 12 42
e 12 45
e 12 47
e 12 48
e 12 49
e 12 52
e 12 53
e 12 54
e 12 55
e 12 56
e 12 58
e 12 59
e 12 60
e 12 62
e 12 63
e 12 65
e 12 66
e 12 67
e 12 69
e 12 70
e 12 71
e 12 72
e 12 73
e 12 74
e 12 75
e 12 78
e 12 80
e 12 83
e 12 84
e 12 85
e 12 86
e 12 87
e 12 89
e 12 90
e 12 91
e 12 92
e 12 93
e 12 94
e 12 95
e 12 97
e 12 98
e 12 99
e 12 100
e 13 16
e 13 17
e 13 18
e 13 22
e 13 25
e 13 27
e 13 28
e 13 29
e 13 31
e 13 32
e 13 33
e 13 35
e 13 36
e 13 37
e 13 39
e 13 40
e 13 42
e 13 43
e 13 44
e 13 45
e 13 46
e 13 47
e 13 48
e 13 49
e 13 50
e 13 52
e 13 53
e 13 55
e 13 56
e 13 61
e 13 62
e 13 63
e 13 64
e 13 65
e 13 66
e 13 67
e 13 68
e 13 70
e 13 71
e 13 72
e 13 73
e 13 74
e 13 75
e 13 76
e 13 77
e 13 79
e 13 80
e 13 81
e 13 82
e 13 83
e 13 84
e 13 85
e 13 86
e 13 87
e 13 88
e 13 89
e 13 90
e 13 92
e 13 93
e 13 94
e 13 96
e 13 98
e 13 99
e 13 100
e 14 15
e 14 18
e 14 21
e 14 25
e 14 27
e 14 28
e 14 29
e 14 30
e 14 31
e 14 32
e 14 33
e 14 34
e 14 35
e 14 36
e 14 37
e 14 39
e 14 40
e 14 41
e 14 42
e 14 44
e 14 45
e 14 47
e 14 48
e 14 49
e 14 50
e 14 51
e 14 53
e 14 55
e 14 56
e 14 57
e 14 58
e 14 59
e 14 60
e 14 61
e 14 62
e 14 63
e 14 64
e 14 65
e 14 66
e 14 67
e 14 69
e 14 70
e 14 71
e 14 72
e 14 73
e 14 74
e 14 75
e 14 76
e 14 77
e 14 78
e 14 79
e 14 81
e 14 82
e 14 83
e 14 84
e 14 85
e 14 86
e 14 88
e 14 90
e 14 92
e 14 93
e 14 94
e 14 95
e 14 96
e 14 97
e 14 98
e 15 16
e 15 19
e 15 21
e 15 25
e 15 26
e 15 27
e 15 28
e 15 29
e 15 30
e 15 31
e 15 32
e 15 33
e 15 34
e 15 37
e 15 38
e 15 40
e 15 42
e 15 43
e 15 44
e 15 45
e 15 46
e 15 48
e 15 51
e 15 52
e 15 54
e 15 55
e 15 58
e 15 59
e 15 60
e 15 61
e 15 62
e 15 63
e 15 64
e 15 65
e 15 66
e 15 70
e 15 71
e 15 72
e 15 73
e 15 74
e 15 75
e 15 76
e 15 77
e 15 79
e 15 84
e 15 85
e 15 86
e 15 87
e 15 89
e 15 90
e 15 91
e 15 93
e 15 94
e 15 95
e 15 96
e 15 97
e 15 98
e 15 99
e 16 17
e 16 18
e 16 20
e 16 23
e 16 25
e 16 27
e 16 28
e 16 29
e 16 30
e 16 31
e 16 32
e 16 33
e 16 35
e 16 36
e 16 38
e 16 40
e 16 41
e 16 42
e 16 43
e 16 44
e 16 47
e 16 48
e 16 49
e 16 50
e 16 51
e 16 53
e 16 54
e 16 55
e 16 56
e 16 57
e 16 58
e 16 59
e 16 60
e 16 62
e 16 63
e 16 64
e 16 65
e 16 67
e 16 68
e 16 69
e 16 70
e 16 71
e 16 74
e 16 76
e 16 77
e 16 78
e 16 80
e 16 82
e 16 83
e 16 85
e 16 86
e 16 87
e 16 88
e 16 89
e 16 90
e 16 92
e 16 93
e 16 95
e 16 96
e 16 98
e 16 99
e 16 100
e 17 21
e 17 25
e 17 27
e 17 28
e 17 29
e 17 30
e 17 31
e 17 32
e 17 34
e 17 36
e 17 37
e 17 38
e 17 39
e 17 41
e 17 42
e 17 43
e 17 44
e 17 45
e 17 48
e 17 49
e 17 50
e 17 52
e 17 54
e 17 55
e 17 56
e 17 57
e 17 59
e 17 60
e 17 61
e 17 63
e 17 64
e 17 65
e 17 66
e 17 67
e 17 68
e 17 70
e 17 71
e 17 72
e 17 73
e 17 76
e 17 78
e 17 79
e 17 80
e 17 83
e 17 86
e 17 87
e 17 88
e 17 89
e 17 90
e 17 91
e 17 92
e 17 93
e 17 94
e 17 95
e 17 97
e 17 99
e 18 19
e 18 20
e 18 21
e 18 22
e 18 23
e 18 25
e 18 26
e 18 27
e 18 28
e 18 29
e 18 30
e 18 31
e 18 32
e 18 33
e 18 34
e 18 35
e 18 36
e 18 37
e 18 38
e 18 39
e 18 40
e 18 41
e 18 42
e 18 43
e 18 44
e 18 45
e 18 46
e 18 47
e 18 48
e 18 49
e 18 50
e 18 51
e 18 52
e 18 53
e 18 54
e 18 55
e 18 56
e 18 57
e 18 58
e 18 59
e 18 60
e 18 61
e 18 62
e 18 63
e 18 64
e 18 65
e 18 66
e 19 20
e 19 21
e 19 25
e 19 26
e 19 27
e 19 28
e 19 29
e 19 30
e 19 31
e 19 32
e 19 33
e 19 34
e 19 35
e 19 36
e 19 37
e 19 38
e 19 39
e 19 40
e 19 41
e 19 42
e 19 43
e 19 44
e 19 45
e 19 46
e 19 47
e 19 48
e 19 49
e 19 50
e 19 51
e 19 52
e 19 53
e 19 54
e 19 55
e 19 56
e 19 57
e 19 58
e 19 59
e 19 60
e 19 61
e 19 62
e 19 63
e 19 64
e 19 65
e 19 66
e 20 21
e 20 25
e 20 26
e 20 27
e 20 28
e 20 29
e 20 30
e 20 31
e 20 32
e 20 33
e 20 34
e 20 35
e 20 36
e 20 37
e 20 38
e 20 39
e 20 40
e 20 41
e 20 42
e 20 43
e 20 44
e 20 45
e 20 46
e 20 47
e 20 48
e 20 49
e 20 50
e 20 51
e 20 52
e 20 53
e 20 54
e 20 55
e 20 56
e 20 57
e 20 58
e 20 59
e 20 60
e 20 61
e 20 62
e 20 63
e 20 64
e 20 65
e 20 66
e 20 82
e 21 22
e 21 23
e 21 25
e 21 26
e 21 27
e 21 28
e 21 29
e 21 30
e 21 31
e 21 32
e 21 33
e 21 34
e 21 35
e 21 36
e 21 37
e 21 38
e 21 39
e 21 40
e 21 41
e 21 42
e 21 43
e 21 44
e 21 45
e 21 46
e 21 47
e 21 48
e 21 49
e 21 50
e 21 51
e 21 52
e 21 53
e 21 54
e 21 55
e 21 56
e 21 57
e 21 58
e 21 59
e 21 60
e 21 61
e 21 62
e 21 63
e 21 64
e 21 65
e 21 66
e 22 23
e 22 25
e 22 26
e 22 27
e 22 28
e 22 29
e 22 30
e 22 31
e 22 32
e 22 33
e 22 34
e 22 35
e 22 36
e 22 37
e 22 38
e 22 39
e 22 40
e 22 41
e 22 42
e 22 43
e 22 44
e 22 45
e 22 46
e 22 47
e 22 48
e 22 49
e 22 50
e 22 51
e 22 52
e 22 53
e 22 54
e 22 55
e 22 56
e 22 57
e 22 58
e 22 59
e 22 60
e 22 61
e 22 62
e 22 63
e 22 64
e 22 65
e 22 66
e 22 89
e 23 25
e 23 26
e 23 27
e 23 28
e 23 29
e 23 30
e 23 31
e 23 32
e 23 33
e 23 34
e 23 35
e 23 36
e 23 37
e 23 38
e 23 39
e 23 40
e 23 41
e 23 42
e 23 43
e 23 44
e 23 45
e 23 47
e 23 48
e 23 49
e 23 50
e 23 51
e 23 52
e 23 53
e 23 54
e 23 55
e 23 56
e 23 57
e 23 58
e 23 59
e 23 60
e 23 61
e 23 62
e 23 63
e 23 64
e 23 65
e 23 66
e 24 26
e 24 30
e 24 32
e 24 37
e 24 45
e 24 47
e 24 48
e 24 49
e 24 53
e 24 56
e 24 57
e 24 63
e 24 65
e 24 68
e 24 75
e 24 76
e 24 80
e 24 81
e 24 82
e 24 86
e 24 87
e 24 89
e 24 95
e 24 98
e 25 26
e 25 31
e 25 32
e 25 35
e 25 37
e 25 42
e 25 44
e 25 46
e 25 49
e 25 50
e 25 51
e 25 60
e 25 62
e 25 75
e 25 84
e 25 86
e 25 88
e 25 89
e 25 98
e 26 27
e 26 33
e 26 34
e 26 35
e 26 36
e 26 39
e 26 40
e 26 48
e 26 53
e 26 56
e 26 57
e 26 58
e 26 64
e 26 65
e 26 77
e 26 80
e 26 81
e 26 85
e 26 94
e 26 95
e 26 96
e 26 98
e 27 31
e 27 38
e 27 39
e 27 40
e 27 42
e 27 43
e 27 46
e 27 50
e 27 55
e 27 57
e 27 62
e 27 70
e 28 30
e 28 34
e 28 35
e 28 39
e 28 41
e 28 42
e 28 43
e 28 45
e 28 47
e 28 48
e 28 49
e 28 53
e 28 60
e 28 64
e 28 67
e 28 70
e 28 71
e 28 82
e 28 86
e 28 89
e 28 97
e 28 98
e 29 31
e 29 32
e 29 34
e 29 35
e 29 36
e 29 39
e 29 40
e 29 45
e 29 52
e 29 63
e 29 66
e 29 81
e 29 82
e 29 87
e 29 95
e 29 96
e 29 100
e 30 34
e 30 35
e 30 46
e 30 51
e 30 55
e 30 67
e 30 68
e 30 73
e 30 74
e 30 82
e 30 91
e 30 97
e 30 100
e 31 32
e 31 34
e 31 35
e 31 36
e 31 37
e 31 39
e 31 41
e 31 42
e 31 43
e 31 53
e 31 57
e 31 60
e 31 62
e 31 74
e 31 84
e 31 87
e 32 33
e 32 34
e 32 35
e 32 36
e 32 38
e 32 41
e 32 49
e 32 52
e 32 53
e 32 54
e 32 55
e 32 56
e 32 57
e 32 58
e 32 59
e 32 60
e 32 61
e 32 62
e 32 63
e 32 64
e 32 65
e 32 66
e 32 67
e 32 68
e 32 69
e 32 70
e 32 72
e 32 73
e 32 74
e 32 75
e 32 76
e 32 77
e 32 78
e 32 79
e 32 80
e 32 81
e 32 82
e 32 83
e 32 84
e 32 85
e 32 86
e 32 87
e 32 88
e 32 89
e 32 90
e 32 91
e 32 92
e 32 93
e 32 94
e 32 95
e 32 96
e 32 97
e 32 98
e 32 99
e 32 100
e 33 35
e 33 36
e 33 39
e 33 40
e 33 42
e 33 43
e 33 46
e 33 49
e 33 51
e 33 52
e 33 53
e 33 54
e 33 55
e 33 56
e 33 57
e 33 58
e 33 60
e 33 61
e 33 62
e 33 63
e 33 64
e 33 65
e 33 66
e 33 67
e 33 68
e 33 69
e 33 70
e 33 71
e 33 72
e 33 73
e 33 74
e 33 75
e 33 76
e 33 77
e 33 78
e 33 79
e 33 80
e 33 81
e 33 82
e 33 83
e 33 84
e 33 85
e 33 86
e 33 87
e 33 88
e 33 89
e 33 90
e 33 91
e 33 92
e 33 93
e 33 94
e 33 95
e 33 96
e 33 97
e 33 98
e 33 99
e 33 100
e 34 35
e 34 36
e 34 37
e 34 40
e 34 45
e 34 46
e 34 52
e 34 53
e 34 54
e 34 55
e 34 56
e 34 57
e 34 58
e 34 59
e 34 60
e 34 61
e 34 62
e 34 63
e 34 64
e 34 65
e 34 66
e 34 67
e 34 68
e 34 69
e 34 70
e 34 71
e 34 72
e 34 73
e 34 74
e 34 75
e 34 76
e 34 77
e 34 78
e 34 79
e 34 80
e 34 81
e 34 82
e 34 83
e 34 84
e 34 85
e 34 86
e 34 87
e 34 88
e 34 89
e 34 90
e 34 91
e 34 92
e 34 93
e 34 94
e 34 95
e 34 96
e 34 98
e 34 99
e 34 100
e 35 37
e 35 39
e 35 44
e 35 47
e 35 48
e 35 52
e 35 53
e 35 54
e 35 55
e 35 56
e 35 57
e 35 58
e 35 59
e 35 60
e 35 61
e 35 62
e 35 63
e 35 64
e 35 65
e 35 66
e 35 67
e 35 68
e 35 69
e 35 70
e 35 71
e 35 72
e 35 73
e 35 74
e 35 75
e 35 76
e 35 77
e 35 78
e 35 79
e 35 80
e 35 81
e 35 82
e 35 83
e 35 84
e 35 85
e 35 86
e 35 87
e 35 88
e 35 89
e 35 90
e 35 91
e 35 92
e 35 93
e 35 94
e 35 95
e 35 96
e 35 97
e 35 99
e 35 100
e 36 37
e 36 39
e 36 40
e 36 42
e 36 52
e 36 53
e 36 54
e 36 55
e 36 56
e 36 57
e 36 58
e 36 59
e 36 60
e 36 62
e 36 63
e 36 64
e 36 65
e 36 66
e 36 67
e 36 68
e 36 69
e 36 70
e 36 71
e 36 72
e 36 73
e 36 74
e 36 75
e 36 76
e 36 77
e 36 78
e 36 79
e 36 80
e 36 81
e 36 82
e 36 83
e 36 85
e 36 86
e 36 87
e 36 88
e 36 89
e 36 90
e 36 91
e 36 92
e 36 93
e 36 94
e 36 95
e 36 97
e 36 98
e 36 99
e 36 100
e 37 41
e 37 44
e 37 46
e 37 50
e 37 52
e 37 53
e 37 54
e 37 55
e 37 56
e 37 57
e 37 58
e 37 60
e 37 61
e 37 62
e 37 63
e 37 64
e 37 65
e 37 66
e 37 67
e 37 68
e 37 69
e 37 70
e 37 71
e 37 72
e 37 73
e 37 74
e 37 75
e 37 76
e 37 77
e 37 78
e 37 79
e 37 80
e 37 81
e 37 82
e 37 83
e 37 84
e 37 85
e 37 86
e 37 87
e 37 88
e 37 89
e 37 90
e 37 91
e 37 93
e 37 94
e 37 95
e 37 96
e 37 97
e 37 98
e 37 99
e 37 100
e 38 42
e 38 43
e 38 44
e 38 47
e 38 52
e 38 53
e 38 54
e 38 55
e 38 56
e 38 57
e 38 58
e 38 59
e 38 60
e 38 61
e 38 62
e 38 63
e 38 64
e 38 65
e 38 66
e 38 67
e 38 68
e 38 69
e 38 70
e 38 71
e 38 72
e 38 73
e 38 74
e 38 75
e 38 76
e 38 77
e 38 78
e 38 79
e 38 80
e 38 81
e 38 82
e 38 83
e 38 84
e 38 85
e 38 86
e 38 87
e 38 88
e 38 89
e 38 90
e 38 91
e 38 92
e 38 93
e 38 94
e 38 95
e 38 96
e 38 97
e 38 98
e 38 99
e 38 100
e 39 44
e 39 45
e 39 47
e 39 49
e 39 50
e 39 52
e 39 53
e 39 54
e 39 55
e 39 56
e 39 57
e 39 58
e 39 59
e 39 60
e 39 61
e 39 62
e 39 63
e 39 64
e 39 65
e 39 66
e 39 67
e 39 68
e 39 69
e 39 70
e 39 71
e 39 72
e 39 73
e 39 74
e 39 75
e 39 76
e 39 77
e 39 78
e 39 79
e 39 80
e 39 81
e 39 82
e 39 84
e 39 85
e 39 86
e 39 87
e 39 88
e 39 89
e 39 90
e 39 91
e 39 92
e 39 93
e 39 94
e 39 95
e 39 96
e 39 97
e 39 98
e 39 99
e 39 100
e 40 41
e 40 42
e 40 43
e 40 44
e 40 52
e 40 53
e 40 54
e 40 55
e 40 56
e 40 57
e 40 58
e 40 59
e 40 60
e 40 61
e 40 62
e 40 63
e 40 64
e 40 65
e 40 66
e 40 67
e 40 68
e 40 69
e 40 70
e 40 71
e 40 72
e 40 73
e 40 74
e 40 75
e 40 76
e 40 77
e 40 78
e 40 79
e 40 80
e 40 81
e 40 82
e 40 83
e 40 84
e 40 85
e 40 86
e 40 87
e 40 88
e 40 89
e 40 90
e 40 91
e 40 92
e 40 93
e 40 94
e 40 95
e 40 96
e 40 97
e 40 98
e 40 99
e 40 100
e 41 42
e 41 46
e 41 48
e 41 49
e 41 52
e 41 53
e 41 54
e 41 55
e 41 56
e 41 57
e 41 59
e 41 60
e 41 61
e 41 62
e 41 63
e 41 64
e 41 65
e 41 66
e 41 67
e 41 68
e 41 69
e 41 70
e 41 71
e 41 72
e 41 73
e 41 74
e 41 75
e 41 76
e 41 77
e 41 78
e 41 79
e 41 80
e 41 81
e 41 82
e 41 83
e 41 84
e 41 85
e 41 86
e 41 87
e 41 88
e 41 89
e 41 90
e 41 91
e 41 92
e 41 93
e 41 94
e 41 95
e 41 96
e 41 97
e 41 98
e 41 99
e 41 100
e 42 51
e 42 52
e 42 53
e 42 54
e 42 55
e 42 56
e 42 57
e 42 58
e 42 59
e 42 60
e 42 61
e 42 63
e 42 64
e 42 65
e 42 66
e 42 68
e 42 69
e 42 70
e 42 71
e 42 72
e 42 73
e 42 74
e 42 75
e 42 76
e 42 77
e 42 78
e 42 79
e 42 80
e 42 81
e 42 82
e 42 83
e 42 84
e 42 85
e 42 86
e 42 87
e 42 88
e 42 89
e 42 90
e 42 91
e 42 92
e 42 93
e 42 94
e 42 95
e 42 96
e 42 97
e 42 98
e 42 99
e 43 45
e 43 50
e 43 52
e 43 53
e 43 54
e 43 55
e 43 56
e 43 57
e 43 59
e 43 60
e 43 61
e 43 63
e 43 64
e 43 65
e 43 66
e 43 67
e 43 68
e 43 69
e 43 70
e 43 71
e 43 72
e 43 73
e 43 74
e 43 75
e 43 76
e 43 77
e 43 78
e 43 79
e 43 80
e 43 81
e 43 82
e 43 83
e 43 84
e 43 85
e 43 86
e 43 88
e 43 89
e 43 90
e 43 91
e 43 93
e 43 94
e 43 96
e 43 97
e 43 98
e 43 99
e 43 100
e 44 47
e 44 49
e 44 51
e 44 52
e 44 53
e 44 54
e 44 55
e 44 56
e 44 58
e 44 59
e 44 60
e 44 61
e 44 62
e 44 63
e 44 64
e 44 65
e 44 66
e 44 67
e 44 68
e 44 69
e 44 70
e 44 71
e 44 72
e 44 73
e 44 74
e 44 75
e 44 76
e 44 77
e 44 78
e 44 79
e 44 80
e 44 81
e 44 82
e 44 83
e 44 84
e 44 86
e 44 87
e 44 88
e 44 89
e 44 90
e 44 91
e 44 92
e 44 93
e 44 94
e 44 95
e 44 96
e 44 97
e 44 98
e 44 99
e 44 100
e 45 46
e 45 47
e 45 50
e 45 51
e 45 52
e 45 53
e 45 54
e 45 55
e 45 56
e 45 57
e 45 58
e 45 59
e 45 60
e 45 61
e 45 62
e 45 63
e 45 64
e 45 65
e 45 66
e 45 67
e 45 68
e 45 69
e 45 70
e 45 71
e 45 72
e 45 73
e 45 74
e 45 75
e 45 76
e 45 77
e 45 78
e 45 79
e 45 80
e 45 81
e 45 82
e 45 83
e 45 84
e 45 85
e 45 86
e 45 87
e 45 88
e 45 89
e 45 90
e 45 91
e 45 92
e 45 93
e 45 94
e 45 95
e 45 96
e 45 97
e 45 98
e 45 99
e 45 100
e 46 48
e 46 50
e 46 52
e 46 53
e 46 55
e 46 56
e 46 57
e 46 58
e 46 59
e 46 60
e 46 61
e 46 62
e 46 63
e 46 64
e 46 65
e 46 66
e 46 67
e 46 68
e 46 69
e 46 70
e 46 71
e 46 72
e 46 73
e 46 74
e 46 75
e 46 76
e 46 77
e 46 78
e 46 79
e 46 80
e 46 81
e 46 82
e 46 83
e 46 84
e 46 85
e 46 86
e 46 87
e 46 88
e 46 89
e 46 90
e 46 91
e 46 93
e 46 94
e 46 95
e 46 96
e 46 97
e 46 98
e 46 99
e 46 100
e 47 48
e 47 49
e 47 52
e 47 53
e 47 54
e 47 55
e 47 56
e 47 57
e 47 58
e 47 59
e 47 60
e 47 61
e 47 62
e 47 63
e 47 64
e 47 65
e 47 67
e 47 68
e 47 69
e 47 70
e 47 71
e 47 72
e 47 73
e 47 74
e 47 76
e 47 77
e 47 78
e 47 79
e 47 80
e 47 81
e 47 82
e 47 83
e 47 84
e 47 85
e 47 86
e 47 87
e 47 88
e 47 89
e 47 90
e 47 91
e 47 92
e 47 93
e 47 94
e 47 95
e 47 96
e 47 97
e 47 98
e 47 99
e 47 100
e 48 49
e 48 50
e 48 51
e 48 52
e 48 53
e 48 54
e 48 55
e 48 56
e 48 57
e 48 58
e 48 59
e 48 60
e 48 61
e 48 62
e 48 63
e 48 64
e 48 65
e 48 66
e 48 67
e 48 68
e 48 69
e 48 70
e 48 71
e 48 72
e 48 73
e 48 74
e 48 75
e 48 76
e 48 77
e 48 78
e 48 79
e 48 80
e 48 81
e 48 82
e 48 83
e 48 84
e 48 85
e 48 86
e 48 87
e 48 88
e 48 89
e 48 90
e 48 91
e 48 92
e 48 93
e 48 94
e 48 95
e 48 96
e 48 97
e 48 98
e 48 100
e 49 50
e 49 52
e 49 53
e 49 54
e 49 55
e 49 56
e 49 57
e 49 58
e 49 59
e 49 60
e 49 61
e 49 62
e 49 63
e 49 64
e 49 65
e 49 66
e 49 67
e 49 68
e 49 69
e 49 70
e 49 71
e 49 72
e 49 73
e 49 74
e 49 75
e 49 76
e 49 77
e 49 78
e 49 79
e 49 80
e 49 81
e 49 82
e 49 83
e 49 84
e 49 85
e 49 86
e 49 87
e 49 88
e 49 89
e 49 90
e 49 91
e 49 92
e 49 93
e 49 95
e 49 96
e 49 97
e 49 98
e 49 99
e 49 100
e 50 52
e 50 53
e 50 54
e 50 55
e 50 57
e 50 58
e 50 59
e 50 60
e 50 61
e 50 62
e 50 63
e 50 65
e 50 66
e 50 68
e 50 69
e 50 70
e 50 71
e 50 72
e 50 73
e 50 74
e 50 75
e 50 76
e 50 77
e 50 78
e 50 79
e 50 80
e 50 81
e 50 82
e 50 83
e 50 84
e 50 85
e 50 86
e 50 87
e 50 88
e 50 89
e 50 90
e 50 91
e 50 92
e 50 93
e 50 94
e 50 95
e 50 96
e 50 97
e 50 98
e 50 99
e 50 100
e 51 52
e 51 53
e 51 54
e 51 55
e 51 56
e 51 57
e 51 58
e 51 59
e 51 60
e 51 61
e 51 62
e 51 63
e 51 64
e 51 65
e 51 66
e 51 67
e 51 68
e 51 69
e 51 70
e 51 71
e 51 72
e 51 73
e 51 74
e 51 75
e 51 76
e 51 77
e 51 78
e 51 79
e 51 80
e 51 81
e 51 82
e 51 83
e 51 84
e 51 85
e 51 86
e 51 87
e 51 88
e 51 89
e 51 90
e 51 91
e 51 92
e 51 93
e 51 94
e 51 96
e 51 97
e 51 98
e 51 99
e 51 100
e 52 53
e 52 54
e 52 56
e 52 57
e 52 62
e 52 63
e 52 65
e 52 66
e 52 68
e 52 69
e 52 71
e 52 73
e 52 76
e 52 83
e 52 86
e 52 87
e 52 88
e 52 89
e 52 90
e 52 92
e 52 93
e 52 94
e 52 96
e 52 97
e 53 55
e 53 58
e 53 59
e 53 60
e 53 63
e 53 64
e 53 66
e 53 68
e 53 74
e 53 77
e 53 78
e 53 79
e 53 83
e 53 84
e 53 88
e 53 93
e 53 99
e 53 100
e 54 55
e 54 56
e 54 58
e 54 59
e 54 60
e 54 61
e 54 64
e 54 73
e 54 74
e 54 75
e 54 76
e 54 81
e 54 82
e 54 83
e 54 84
e 54 87
e 54 91
e 54 98
e 54 100
e 55 62
e 55 64
e 55 67
e 55 69
e 55 74
e 55 76
e 55 77
e 55 79
e 55 80
e 55 81
e 55 85
e 55 86
e 55 91
e 55 97
e 55 99
e 56 59
e 56 65
e 56 69
e 56 70
e 56 76
e 56 79
e 56 88
e 56 90
e 56 93
e 56 97
e 56 99
e 56 100
e 57 58
e 57 62
e 57 63
e 57 64
e 57 66
e 57 67
e 57 68
e 57 71
e 57 72
e 57 73
e 57 74
e 57 76
e 57 77
e 57 80
e 57 81
e 57 83
e 57 90
e 57 100
e 58 60
e 58 61
e 58 63
e 58 65
e 58 68
e 58 71
e 58 72
e 58 78
e 58 79
e 58 80
e 58 81
e 58 85
e 58 86
e 58 87
e 58 91
e 58 93
e 58 95
e 58 96
e 59 62
e 59 63
e 59 66
e 59 67
e 59 68
e 59 70
e 59 71
e 59 74
e 59 77
e 59 79
e 59 81
e 59 83
e 59 84
e 59 89
e 59 90
e 59 92
e 59 94
e 59 99
e 59 100
e 60 61
e 60 65
e 60 67
e 60 68
e 60 71
e 60 78
e 60 82
e 60 85
e 60 89
e 60 91
e 60 92
e 60 93
e 60 94
e 60 97
e 60 100
e 61 63
e 61 65
e 61 67
e 61 68
e 61 69
e 61 70
e 61 72
e 61 74
e 61 75
e 61 78
e 61 79
e 61 80
e 61 84
e 61 86
e 61 91
e 61 94
e 61 96
e 61 97
e 62 64
e 62 68
e 62 69
e 62 72
e 62 73
e 62 81
e 62 82
e 62 83
e 62 87
e 62 92
e 62 94
e 63 65
e 63 66
e 63 67
e 63 72
e 63 73
e 63 81
e 63 83
e 63 84
e 63 87
e 63 89
e 63 91
e 63 92
e 63 93
e 63 94
e 63 96
e 63 97
e 64 69
e 64 77
e 64 78
e 64 79
e 64 80
e 64 81
e 64 82
e 64 86
e 64 89
e 64 90
e 64 95
e 65 66
e 65 67
e 65 71
e 65 72
e 65 74
e 65 77
e 65 78
e 65 79
e 65 80
e 65 82
e 65 83
e 65 85
e 65 86
e 65 93
e 65 94
e 65 100
e 66 67
e 66 68
e 66 70
e 66 72
e 66 73
e 66 75
e 66 76
e 66 84
e 66 86
e 66 87
e 66 88
e 66 89
e 66 90
e 66 91
e 66 93
e 66 97
e 66 98
e 67 68
e 67 71
e 67 73
e 67 74
e 67 89
e 67 90
e 67 93
e 67 95
e 67 96
e 67 100
e 68 74
e 68 76
e 68 77
e 68 78
e 68 81
e 68 82
e 68 83
e 68 85
e 68 89
e 68 93
e 68 94
e 68 95
e 69 77
e 69 78
e 69 80
e 69 81
e 69 85
e 69 87
e 69 88
e 69 89
e 69 93
e 69 94
e 69 98
e 69 99
e 70 73
e 70 77
e 70 78
e 70 81
e 70 86
e 70 88
e 70 90
e 70 91
e 70 94
e 70 98
e 70 99
e 70 100
e 71 75
e 71 76
e 71 77
e 71 79
e 71 81
e 71 82
e 71 83
e 71 89
e 71 93
e 71 94
e 71 95
e 71 97
e 71 100
e 72 77
e 72 79
e 72 80
e 72 87
e 72 89
e 72 90
e 72 91
e 72 92
e 72 94
e 72 99
e 73 77
e 73 80
e 73 82
e 73 83
e 73 87
e 73 88
e 73 89
e 73 91
e 73 99
e 74 75
e 74 76
e 74 77
e 74 83
e 74 85
e 74 90
e 74 91
e 74 92
e 74 96
e 74 98
e 74 99
e 75 78
e 75 81
e 75 85
e 75 87
e 75 88
e 75 89
e 75 90
e 75 91
e 75 95
e 75 97
e 75 100
e 76 82
e 76 83
e 76 90
e 76 91
e 76 96
e 77 78
e 77 80
e 77 82
e 77 84
e 77 85
e 77 86
e 77 88
e 77 89
e 77 90
e 77 93
e 77 98
e 77 99
e 77 100
e 78 79
e 78 80
e 78 82
e 78 83
e 78 86
e 78 87
e 78 88
e 78 89
e 78 90
e 78 91
e 78 96
e 78 98
e 79 80
e 79 81
e 79 85
e 79 92
e 79 93
e 79 96
e 79 97
e 79 99
e 80 82
e 80 84
e 80 88
e 80 89
e 80 91
e 80 95
e 80 96
e 80 100
e 81 82
e 81 83
e 81 85
e 81 87
e 81 89
e 81 91
e 81 95
e 81 100
e 82 83
e 82 85
e 82 86
e 82 90
e 82 91
e 82 92
e 82 97
e 83 84
e 83 88
e 83 89
e 83 90
e 83 91
e 83 92
e 83 94
e 83 95
e 83 98
e 83 100
e 84 87
e 84 89
e 84 91
e 84 93
e 84 94
e 84 96
e 84 98
e 84 99
e 85 86
e 85 88
e 85 92
e 85 93
e 86 90
e 86 92
e 86 94
e 86 95
e 86 97
e 86 98
e 86 100
e 87 93
e 87 96
e 87 100
e 88 93
e 88 97
e 88 99
e 88 100
e 89 90
e 89 91
e 89 94
e 89 95
e 89 96
e 89 97
e 89 99
e 89 100
e 90 91
e 90 93
e 90 97
e 91 94
e 91 95
e 91 99
e 92 93
e 92 95
e 92 97
e 92 98
e 93 96
e 93 97
e 93 100
e 94 95
e 94 96
e 94 97
e 94 98
e 94 99
e 95 97
e 95 98
e 95 99
e 95 100
e 96 97
e 96 98
e 96 99
e 96 100
e 97 98
e 97 99
e 99 100
